0 184 89
1 109 457
2 77 246
3 14 61
4 102 59
5 35 42
6 1 222
7 149 183
8 39 167
9 658 279
10 13 741
11 88 105
12 393 18
13 126 243
14 388 474
15 139 67
16 234 146
17 51 366
18 287 186
19 19 162
20 483 47
21 0 30
22 235 480
23 181 113
24 185 137
25 372 24
26 463 22
27 745 54
28 13 704
29 234 510
30 477 271
31 59 262
32 124 266
33 589 162
34 10 309
35 185 19
36 37 152
37 237 36
38 165 296
39 317 471
40 539 38
41 26 448
42 120 251
43 11 571
44 557 62
45 207 27
46 202 651
47 310 156
48 17 461
49 1 6
50 66 178
51 38 78
52 610 551
53 194 89
54 69 408
55 48 611
56 11 13
57 170 160
58 190 227
59 103 91
60 136 584
61 266 488
62 661 72
63 143 588
64 586 373